Test: battleship-12-23-sat.cnf
Options: -no-inverting-opt -sym-usage-var-bump
WARNING: for repeatability, setting FPU to use double precision
============================[ Problem Statistics ]=============================
|                                                                             |
|  Number of symmetries:           18                                         |
|  Number of invertingSyms:         0                                         |
|  Number of variables:           276                                         |
|  Number of clauses:            1662                                         |
|  Parse time:                   0.00 s                                       |
|                                                                             |
============================[ Search Statistics ]==============================
| Conflicts |          ORIGINAL         |          LEARNT          | Progress |
|           |    Vars  Clauses Literals |    Limit  Clauses Lit/Cl |          |
===============================================================================
|       100 |     276     1662     6348 |      609      100     92 |  0.001 % |
|       250 |     276     1662     6348 |      670      280     85 |  0.001 % |
|       475 |     276     1662     6348 |      737      555     93 |  0.001 % |
|       812 |     276     1662     6348 |      811      495     95 |  0.001 % |
|      1318 |     276     1662     6348 |      892      633     86 |  0.001 % |
|      2077 |     276     1662     6348 |      981      577     83 |  0.001 % |
===============================================================================
restarts              : 15
conflicts             : 2470           (34304 /sec)
symconflicts          : 128            (1778 /sec)
decisions             : 7063           (0.00 % random) (98092 /sec)
propagations          : 53573          (744028 /sec)
sympropagations       : 561            (7791 /sec)
conflict literals     : 246166         (1.17 % deleted)
literals     : 246166         (1.17 % deleted)

HEURISTIC USAGES
random                : 0           
activity w/ lookahead : 0           
activity no lookahead : 0           
original sp           : 7062        
sym count             : 0           

Memory used           : 6.00 MB
CPU time              : 0.072004 s

SATISFIABLE
